\ENCODING=ISO-8859-1
\Problem name: 

Minimize
 obj: [ 1008 a_0_0 * a_1_1 + 11564 a_0_0 * a_1_3 + 13076 a_0_0 * a_1_4
      + 8260 a_0_0 * a_1_5 + 3456 a_0_0 * a_2_1 + 39648 a_0_0 * a_2_3
      + 44832 a_0_0 * a_2_4 + 28320 a_0_0 * a_2_5 + 1008 a_0_1 * a_1_0
      + 1876 a_0_1 * a_1_3 + 1400 a_0_1 * a_1_4 + 3456 a_0_1 * a_2_0
      + 6432 a_0_1 * a_2_3 + 4800 a_0_1 * a_2_4 + 4284 a_0_2 * a_1_5
      + 14688 a_0_2 * a_2_5 + 11564 a_0_3 * a_1_0 + 1876 a_0_3 * a_1_1
      + 4340 a_0_3 * a_1_4 + 13384 a_0_3 * a_1_5 + 39648 a_0_3 * a_2_0
      + 6432 a_0_3 * a_2_1 + 14880 a_0_3 * a_2_4 + 45888 a_0_3 * a_2_5
      + 13076 a_0_4 * a_1_0 + 1400 a_0_4 * a_1_1 + 4340 a_0_4 * a_1_3
      + 44832 a_0_4 * a_2_0 + 4800 a_0_4 * a_2_1 + 14880 a_0_4 * a_2_3
      + 8260 a_0_5 * a_1_0 + 4284 a_0_5 * a_1_2 + 13384 a_0_5 * a_1_3
      + 28320 a_0_5 * a_2_0 + 14688 a_0_5 * a_2_2 + 45888 a_0_5 * a_2_3
      + 1728 a_1_0 * a_2_1 + 19824 a_1_0 * a_2_3 + 22416 a_1_0 * a_2_4
      + 14160 a_1_0 * a_2_5 + 1728 a_1_1 * a_2_0 + 3216 a_1_1 * a_2_3
      + 2400 a_1_1 * a_2_4 + 7344 a_1_2 * a_2_5 + 19824 a_1_3 * a_2_0
      + 3216 a_1_3 * a_2_1 + 7440 a_1_3 * a_2_4 + 22944 a_1_3 * a_2_5
      + 22416 a_1_4 * a_2_0 + 2400 a_1_4 * a_2_1 + 7440 a_1_4 * a_2_3
      + 14160 a_1_5 * a_2_0 + 7344 a_1_5 * a_2_2 + 22944 a_1_5 * a_2_3 ] / 2
Subject To
 c1: a_0_0 + a_1_0 + a_2_0  = 1
 c2: a_0_1 + a_1_1 + a_2_1  = 1
 c3: a_0_2 + a_1_2 + a_2_2  = 1
 c4: a_0_3 + a_1_3 + a_2_3  = 1
 c5: a_0_4 + a_1_4 + a_2_4  = 1
 c6: a_0_5 + a_1_5 + a_2_5  = 1
 c7: 869 a_0_0 + 77 a_0_1 + 341 a_0_2 + 987 a_0_3 + 293 a_0_4 + 80 a_0_5
     <= 2031
 c8: 869 a_1_0 + 77 a_1_1 + 341 a_1_2 + 987 a_1_3 + 293 a_1_4 + 80 a_1_5
     <= 2653
 c9: 869 a_2_0 + 77 a_2_1 + 341 a_2_2 + 987 a_2_3 + 293 a_2_4 + 80 a_2_5
     <= 2492
Bounds
 0 <= a_0_0 <= 1
 0 <= a_0_1 <= 1
 0 <= a_0_2 <= 1
 0 <= a_0_3 <= 1
 0 <= a_0_4 <= 1
 0 <= a_0_5 <= 1
 0 <= a_1_0 <= 1
 0 <= a_1_1 <= 1
 0 <= a_1_2 <= 1
 0 <= a_1_3 <= 1
 0 <= a_1_4 <= 1
 0 <= a_1_5 <= 1
 0 <= a_2_0 <= 1
 0 <= a_2_1 <= 1
 0 <= a_2_2 <= 1
 0 <= a_2_3 <= 1
 0 <= a_2_4 <= 1
 0 <= a_2_5 <= 1
Binaries
 a_0_0  a_0_1  a_0_2  a_0_3  a_0_4  a_0_5  a_1_0  a_1_1  a_1_2  a_1_3  a_1_4 
 a_1_5  a_2_0  a_2_1  a_2_2  a_2_3  a_2_4  a_2_5 
End
